p cnf 121 480
c p weight 52 0 0
c p weight -52 1 0
c p weight 53 1.0 0
c p weight -53 1 0
48 -47 45 0
48 -47 46 0
-48 47 45 0
-48 47 46 0
48 47 -45 -46 0
-48 -47 -45 -46 0
49 45 -46 0
49 -45 46 0
-49 45 46 0
-49 -45 -46 0
50 51 -48 0
50 -48 49 0
-50 51 48 0
-50 48 49 0
50 -48 -45 0
-50 48 -45 0
50 -51 48 45 -49 0
-50 -51 -48 45 -49 0
51 -45 49 0
-51 45 49 0
-52 49 0
51 -52 -45 0
-51 -52 45 0
51 52 45 -49 0
-51 52 -45 -49 0
-53 49 0
51 -53 45 0
-51 -53 -45 0
51 53 -45 -49 0
-51 53 45 -49 0
54 -50 51 0
54 -50 49 0
-54 50 51 0
-54 50 49 0
54 50 -51 -49 0
-54 -50 -51 -49 0
55 51 -49 0
55 -51 49 0
-55 51 49 0
-55 -51 -49 0
56 -54 51 0
56 -54 44 0
-56 54 51 0
-56 54 44 0
56 -54 43 -55 0
56 -54 -43 55 0
-56 54 43 -55 0
-56 54 -43 55 0
56 54 -51 43 55 -44 0
56 54 -51 -43 -55 -44 0
-56 -54 -51 43 55 -44 0
-56 -54 -51 -43 -55 -44 0
58 51 -43 0
58 -51 43 0
-58 51 43 0
-58 -51 -43 0
57 55 -44 0
57 -55 44 0
-57 55 44 0
-57 -55 -44 0
59 -56 58 0
59 -56 42 0
-59 56 58 0
-59 56 42 0
59 -56 41 -44 0
59 -56 -41 44 0
-59 56 41 -44 0
-59 56 -41 44 0
59 56 -58 41 44 -42 0
59 56 -58 -41 -44 -42 0
-59 -56 -58 41 44 -42 0
-59 -56 -58 -41 -44 -42 0
61 58 -41 0
61 -58 41 0
-61 58 41 0
-61 -58 -41 0
60 44 -42 0
60 -44 42 0
-60 44 42 0
-60 -44 -42 0
62 -59 61 0
62 -59 40 0
-62 59 61 0
-62 59 40 0
62 -59 39 -42 0
62 -59 -39 42 0
-62 59 39 -42 0
-62 59 -39 42 0
62 59 -61 39 42 -40 0
62 59 -61 -39 -42 -40 0
-62 -59 -61 39 42 -40 0
-62 -59 -61 -39 -42 -40 0
64 61 -39 0
64 -61 39 0
-64 61 39 0
-64 -61 -39 0
63 42 -40 0
63 -42 40 0
-63 42 40 0
-63 -42 -40 0
65 -62 64 0
65 -62 38 0
-65 62 64 0
-65 62 38 0
65 -62 37 -40 0
65 -62 -37 40 0
-65 62 37 -40 0
-65 62 -37 40 0
65 62 -64 37 40 -38 0
65 62 -64 -37 -40 -38 0
-65 -62 -64 37 40 -38 0
-65 -62 -64 -37 -40 -38 0
67 64 -37 0
67 -64 37 0
-67 64 37 0
-67 -64 -37 0
66 40 -38 0
66 -40 38 0
-66 40 38 0
-66 -40 -38 0
68 -65 67 0
68 -65 36 0
-68 65 67 0
-68 65 36 0
68 -65 35 -38 0
68 -65 -35 38 0
-68 65 35 -38 0
-68 65 -35 38 0
68 65 -67 35 38 -36 0
68 65 -67 -35 -38 -36 0
-68 -65 -67 35 38 -36 0
-68 -65 -67 -35 -38 -36 0
70 67 -35 0
70 -67 35 0
-70 67 35 0
-70 -67 -35 0
69 38 -36 0
69 -38 36 0
-69 38 36 0
-69 -38 -36 0
71 -68 70 0
71 -68 34 0
-71 68 70 0
-71 68 34 0
71 -68 33 -36 0
71 -68 -33 36 0
-71 68 33 -36 0
-71 68 -33 36 0
71 68 -70 33 36 -34 0
71 68 -70 -33 -36 -34 0
-71 -68 -70 33 36 -34 0
-71 -68 -70 -33 -36 -34 0
73 70 -33 0
73 -70 33 0
-73 70 33 0
-73 -70 -33 0
72 36 -34 0
72 -36 34 0
-72 36 34 0
-72 -36 -34 0
74 -71 73 0
74 -71 32 0
-74 71 73 0
-74 71 32 0
74 -71 31 -34 0
74 -71 -31 34 0
-74 71 31 -34 0
-74 71 -31 34 0
74 71 -73 31 34 -32 0
74 71 -73 -31 -34 -32 0
-74 -71 -73 31 34 -32 0
-74 -71 -73 -31 -34 -32 0
76 73 -31 0
76 -73 31 0
-76 73 31 0
-76 -73 -31 0
75 34 -32 0
75 -34 32 0
-75 34 32 0
-75 -34 -32 0
77 -74 76 0
77 -74 30 0
-77 74 76 0
-77 74 30 0
77 -74 29 -32 0
77 -74 -29 32 0
-77 74 29 -32 0
-77 74 -29 32 0
77 74 -76 29 32 -30 0
77 74 -76 -29 -32 -30 0
-77 -74 -76 29 32 -30 0
-77 -74 -76 -29 -32 -30 0
79 76 -29 0
79 -76 29 0
-79 76 29 0
-79 -76 -29 0
78 32 -30 0
78 -32 30 0
-78 32 30 0
-78 -32 -30 0
80 -77 79 0
80 -77 28 0
-80 77 79 0
-80 77 28 0
80 -77 27 -30 0
80 -77 -27 30 0
-80 77 27 -30 0
-80 77 -27 30 0
80 77 -79 27 30 -28 0
80 77 -79 -27 -30 -28 0
-80 -77 -79 27 30 -28 0
-80 -77 -79 -27 -30 -28 0
82 79 -27 0
82 -79 27 0
-82 79 27 0
-82 -79 -27 0
81 30 -28 0
81 -30 28 0
-81 30 28 0
-81 -30 -28 0
83 -80 82 0
83 -80 26 0
-83 80 82 0
-83 80 26 0
83 -80 25 -28 0
83 -80 -25 28 0
-83 80 25 -28 0
-83 80 -25 28 0
83 80 -82 25 28 -26 0
83 80 -82 -25 -28 -26 0
-83 -80 -82 25 28 -26 0
-83 -80 -82 -25 -28 -26 0
85 82 -25 0
85 -82 25 0
-85 82 25 0
-85 -82 -25 0
84 28 -26 0
84 -28 26 0
-84 28 26 0
-84 -28 -26 0
86 -83 85 0
86 -83 24 0
-86 83 85 0
-86 83 24 0
86 -83 23 -26 0
86 -83 -23 26 0
-86 83 23 -26 0
-86 83 -23 26 0
86 83 -85 23 26 -24 0
86 83 -85 -23 -26 -24 0
-86 -83 -85 23 26 -24 0
-86 -83 -85 -23 -26 -24 0
88 85 -23 0
88 -85 23 0
-88 85 23 0
-88 -85 -23 0
87 26 -24 0
87 -26 24 0
-87 26 24 0
-87 -26 -24 0
89 -86 88 0
89 -86 22 0
-89 86 88 0
-89 86 22 0
89 -86 21 -24 0
89 -86 -21 24 0
-89 86 21 -24 0
-89 86 -21 24 0
89 86 -88 21 24 -22 0
89 86 -88 -21 -24 -22 0
-89 -86 -88 21 24 -22 0
-89 -86 -88 -21 -24 -22 0
91 88 -21 0
91 -88 21 0
-91 88 21 0
-91 -88 -21 0
90 24 -22 0
90 -24 22 0
-90 24 22 0
-90 -24 -22 0
92 -89 91 0
92 -89 20 0
-92 89 91 0
-92 89 20 0
92 -89 19 -22 0
92 -89 -19 22 0
-92 89 19 -22 0
-92 89 -19 22 0
92 89 -91 19 22 -20 0
92 89 -91 -19 -22 -20 0
-92 -89 -91 19 22 -20 0
-92 -89 -91 -19 -22 -20 0
94 91 -19 0
94 -91 19 0
-94 91 19 0
-94 -91 -19 0
93 22 -20 0
93 -22 20 0
-93 22 20 0
-93 -22 -20 0
95 -92 94 0
95 -92 18 0
-95 92 94 0
-95 92 18 0
95 -92 17 -20 0
95 -92 -17 20 0
-95 92 17 -20 0
-95 92 -17 20 0
95 92 -94 17 20 -18 0
95 92 -94 -17 -20 -18 0
-95 -92 -94 17 20 -18 0
-95 -92 -94 -17 -20 -18 0
97 94 -17 0
97 -94 17 0
-97 94 17 0
-97 -94 -17 0
96 20 -18 0
96 -20 18 0
-96 20 18 0
-96 -20 -18 0
98 -95 97 0
98 -95 16 0
-98 95 97 0
-98 95 16 0
98 -95 15 -18 0
98 -95 -15 18 0
-98 95 15 -18 0
-98 95 -15 18 0
98 95 -97 15 18 -16 0
98 95 -97 -15 -18 -16 0
-98 -95 -97 15 18 -16 0
-98 -95 -97 -15 -18 -16 0
100 97 -15 0
100 -97 15 0
-100 97 15 0
-100 -97 -15 0
99 18 -16 0
99 -18 16 0
-99 18 16 0
-99 -18 -16 0
101 -98 100 0
101 -98 14 0
-101 98 100 0
-101 98 14 0
101 -98 13 -16 0
101 -98 -13 16 0
-101 98 13 -16 0
-101 98 -13 16 0
101 98 -100 13 16 -14 0
101 98 -100 -13 -16 -14 0
-101 -98 -100 13 16 -14 0
-101 -98 -100 -13 -16 -14 0
103 100 -13 0
103 -100 13 0
-103 100 13 0
-103 -100 -13 0
102 16 -14 0
102 -16 14 0
-102 16 14 0
-102 -16 -14 0
104 -101 103 0
104 -101 12 0
-104 101 103 0
-104 101 12 0
104 -101 11 -14 0
104 -101 -11 14 0
-104 101 11 -14 0
-104 101 -11 14 0
104 101 -103 11 14 -12 0
104 101 -103 -11 -14 -12 0
-104 -101 -103 11 14 -12 0
-104 -101 -103 -11 -14 -12 0
106 103 -11 0
106 -103 11 0
-106 103 11 0
-106 -103 -11 0
105 14 -12 0
105 -14 12 0
-105 14 12 0
-105 -14 -12 0
107 -104 106 0
107 -104 10 0
-107 104 106 0
-107 104 10 0
107 -104 9 -12 0
107 -104 -9 12 0
-107 104 9 -12 0
-107 104 -9 12 0
107 104 -106 9 12 -10 0
107 104 -106 -9 -12 -10 0
-107 -104 -106 9 12 -10 0
-107 -104 -106 -9 -12 -10 0
109 106 -9 0
109 -106 9 0
-109 106 9 0
-109 -106 -9 0
108 12 -10 0
108 -12 10 0
-108 12 10 0
-108 -12 -10 0
110 -107 109 0
110 -107 8 0
-110 107 109 0
-110 107 8 0
110 -107 7 -10 0
110 -107 -7 10 0
-110 107 7 -10 0
-110 107 -7 10 0
110 107 -109 7 10 -8 0
110 107 -109 -7 -10 -8 0
-110 -107 -109 7 10 -8 0
-110 -107 -109 -7 -10 -8 0
112 109 -7 0
112 -109 7 0
-112 109 7 0
-112 -109 -7 0
111 10 -8 0
111 -10 8 0
-111 10 8 0
-111 -10 -8 0
113 -110 112 0
113 -110 6 0
-113 110 112 0
-113 110 6 0
113 -110 5 -8 0
113 -110 -5 8 0
-113 110 5 -8 0
-113 110 -5 8 0
113 110 -112 5 8 -6 0
113 110 -112 -5 -8 -6 0
-113 -110 -112 5 8 -6 0
-113 -110 -112 -5 -8 -6 0
115 112 -5 0
115 -112 5 0
-115 112 5 0
-115 -112 -5 0
114 8 -6 0
114 -8 6 0
-114 8 6 0
-114 -8 -6 0
116 -113 115 0
116 -113 4 0
-116 113 115 0
-116 113 4 0
116 -113 3 -6 0
116 -113 -3 6 0
-116 113 3 -6 0
-116 113 -3 6 0
116 113 -115 3 6 -4 0
116 113 -115 -3 -6 -4 0
-116 -113 -115 3 6 -4 0
-116 -113 -115 -3 -6 -4 0
118 115 -3 0
118 -115 3 0
-118 115 3 0
-118 -115 -3 0
117 6 -4 0
117 -6 4 0
-117 6 4 0
-117 -6 -4 0
119 -116 118 0
119 -116 2 0
-119 116 118 0
-119 116 2 0
119 -116 1 -4 0
119 -116 -1 4 0
-119 116 1 -4 0
-119 116 -1 4 0
119 116 -118 1 4 -2 0
119 116 -118 -1 -4 -2 0
-119 -116 -118 1 4 -2 0
-119 -116 -118 -1 -4 -2 0
121 118 -1 0
121 -118 1 0
-121 118 1 0
-121 -118 -1 0
120 4 -2 0
120 -4 2 0
-120 4 2 0
-120 -4 -2 0
